c File:  zeroin.i.2.col
c
c SOURCE: Gary Lewandowski (gary@cs.wisc.edu)
c
c DESCRIPTION: Coloring problem generated from a register allocation
c              problem based on real code.
c
c graph #2 from register allocation file zeroin.i
p edge 211 3541
e 1 2
e 1 3
e 1 4
e 1 5
e 1 6
e 1 7
e 1 8
e 1 9
e 1 10
e 1 11
e 1 12
e 1 13
e 1 14
e 1 15
e 1 16
e 1 33
e 1 36
e 1 41
e 1 43
e 1 45
e 1 47
e 1 48
e 1 51
e 1 54
e 1 56
e 1 57
e 1 59
e 1 60
e 1 61
e 1 70
e 1 71
e 1 72
e 1 73
e 1 74
e 1 75
e 1 76
e 1 77
e 1 78
e 1 80
e 1 82
e 1 85
e 1 88
e 1 90
e 1 91
e 1 92
e 1 99
e 1 101
e 1 106
e 1 107
e 1 108
e 1 109
e 1 110
e 1 117
e 1 120
e 1 121
e 1 122
e 1 124
e 1 125
e 1 126
e 1 127
e 1 128
e 1 129
e 1 130
e 1 131
e 1 132
e 1 133
e 1 134
e 1 135
e 1 136
e 1 137
e 1 138
e 1 139
e 1 145
e 1 146
e 1 147
e 1 148
e 1 151
e 1 152
e 1 154
e 1 156
e 1 162
e 1 163
e 1 164
e 1 165
e 1 166
e 1 167
e 1 168
e 1 170
e 1 172
e 1 173
e 1 174
e 1 175
e 1 176
e 1 177
e 1 178
e 1 179
e 1 180
e 1 181
e 1 182
e 1 183
e 1 184
e 1 185
e 1 186
e 1 190
e 1 191
e 1 192
e 1 193
e 1 194
e 1 195
e 1 196
e 1 197
e 1 198
e 1 199
e 1 200
e 1 201
e 1 202
e 1 204
e 1 205
e 1 206
e 1 207
e 1 208
e 1 210
e 1 211
e 1 84
e 1 83
e 1 81
e 1 79
e 1 69
e 1 68
e 1 67
e 1 66
e 1 65
e 1 64
e 1 63
e 1 62
e 1 144
e 1 143
e 1 142
e 1 141
e 1 140
e 2 3
e 2 4
e 2 5
e 2 6
e 2 7
e 2 8
e 2 9
e 2 10
e 2 11
e 2 12
e 2 13
e 2 14
e 2 15
e 2 16
e 2 33
e 2 36
e 2 41
e 2 43
e 2 45
e 2 47
e 2 48
e 2 51
e 2 54
e 2 56
e 2 57
e 2 59
e 2 60
e 2 61
e 2 70
e 2 71
e 2 72
e 2 73
e 2 74
e 2 75
e 2 76
e 2 77
e 2 78
e 2 80
e 2 82
e 2 85
e 2 88
e 2 90
e 2 91
e 2 92
e 2 99
e 2 101
e 2 106
e 2 107
e 2 108
e 2 109
e 2 110
e 2 117
e 2 120
e 2 121
e 2 122
e 2 124
e 2 125
e 2 126
e 2 127
e 2 128
e 2 129
e 2 130
e 2 131
e 2 132
e 2 133
e 2 134
e 2 135
e 2 136
e 2 137
e 2 138
e 2 139
e 2 145
e 2 146
e 2 147
e 2 148
e 2 151
e 2 152
e 2 154
e 2 156
e 2 162
e 2 163
e 2 164
e 2 165
e 2 166
e 2 167
e 2 168
e 2 170
e 2 172
e 2 173
e 2 174
e 2 175
e 2 176
e 2 177
e 2 178
e 2 179
e 2 180
e 2 181
e 2 182
e 2 183
e 2 184
e 2 185
e 2 186
e 2 190
e 2 191
e 2 192
e 2 193
e 2 194
e 2 195
e 2 196
e 2 197
e 2 198
e 2 199
e 2 200
e 2 201
e 2 202
e 2 204
e 2 205
e 2 206
e 2 207
e 2 208
e 2 210
e 2 211
e 2 84
e 2 83
e 2 81
e 2 79
e 2 69
e 2 68
e 2 67
e 2 66
e 2 65
e 2 64
e 2 63
e 2 62
e 2 144
e 2 143
e 2 142
e 2 141
e 2 140
e 3 4
e 3 5
e 3 6
e 3 7
e 3 8
e 3 9
e 3 10
e 3 11
e 3 12
e 3 13
e 3 14
e 3 15
e 3 16
e 3 33
e 3 36
e 3 41
e 3 43
e 3 45
e 3 47
e 3 48
e 3 51
e 3 54
e 3 56
e 3 57
e 3 59
e 3 60
e 3 61
e 3 70
e 3 71
e 3 72
e 3 73
e 3 74
e 3 75
e 3 76
e 3 77
e 3 78
e 3 80
e 3 82
e 3 85
e 3 88
e 3 90
e 3 91
e 3 92
e 3 99
e 3 101
e 3 106
e 3 107
e 3 108
e 3 109
e 3 110
e 3 117
e 3 120
e 3 121
e 3 122
e 3 124
e 3 125
e 3 126
e 3 127
e 3 128
e 3 129
e 3 130
e 3 131
e 3 132
e 3 133
e 3 134
e 3 135
e 3 136
e 3 137
e 3 138
e 3 139
e 3 145
e 3 146
e 3 147
e 3 148
e 3 151
e 3 152
e 3 154
e 3 156
e 3 162
e 3 163
e 3 164
e 3 165
e 3 166
e 3 167
e 3 168
e 3 170
e 3 172
e 3 173
e 3 174
e 3 175
e 3 176
e 3 177
e 3 178
e 3 179
e 3 180
e 3 181
e 3 182
e 3 183
e 3 184
e 3 185
e 3 186
e 3 190
e 3 191
e 3 192
e 3 193
e 3 194
e 3 195
e 3 196
e 3 197
e 3 198
e 3 199
e 3 200
e 3 201
e 3 202
e 3 204
e 3 205
e 3 206
e 3 207
e 3 208
e 3 210
e 3 211
e 3 84
e 3 83
e 3 81
e 3 79
e 3 69
e 3 68
e 3 67
e 3 66
e 3 65
e 3 64
e 3 63
e 3 62
e 4 5
e 4 6
e 4 7
e 4 8
e 4 9
e 4 10
e 4 11
e 4 12
e 4 13
e 4 14
e 4 15
e 4 16
e 4 33
e 4 36
e 4 41
e 4 43
e 4 45
e 4 47
e 4 48
e 4 51
e 4 54
e 4 56
e 4 57
e 4 59
e 4 60
e 4 61
e 4 70
e 4 71
e 4 72
e 4 73
e 4 74
e 4 75
e 4 76
e 4 77
e 4 78
e 4 80
e 4 82
e 4 85
e 4 88
e 4 90
e 4 91
e 4 92
e 4 99
e 4 101
e 4 106
e 4 107
e 4 108
e 4 109
e 4 110
e 4 117
e 4 120
e 4 121
e 4 122
e 4 124
e 4 125
e 4 126
e 4 127
e 4 128
e 4 129
e 4 130
e 4 131
e 4 132
e 4 133
e 4 134
e 4 135
e 4 136
e 4 137
e 4 138
e 4 139
e 4 145
e 4 146
e 4 147
e 4 148
e 4 151
e 4 152
e 4 154
e 4 156
e 4 162
e 4 163
e 4 164
e 4 165
e 4 166
e 4 167
e 4 168
e 4 170
e 4 172
e 4 173
e 4 174
e 4 175
e 4 176
e 4 177
e 4 178
e 4 179
e 4 180
e 4 181
e 4 182
e 4 183
e 4 184
e 4 185
e 4 186
e 4 190
e 4 191
e 4 192
e 4 193
e 4 194
e 4 195
e 4 196
e 4 197
e 4 198
e 4 199
e 4 200
e 4 201
e 4 202
e 4 204
e 4 205
e 4 206
e 4 207
e 4 208
e 4 210
e 4 211
e 5 6
e 5 7
e 5 8
e 5 9
e 5 10
e 5 11
e 5 12
e 5 13
e 5 14
e 5 15
e 5 16
e 5 33
e 5 36
e 5 41
e 5 43
e 5 45
e 5 47
e 5 48
e 5 51
e 5 54
e 5 56
e 5 57
e 5 59
e 5 60
e 5 61
e 5 70
e 5 71
e 5 72
e 5 73
e 5 74
e 5 75
e 5 76
e 5 77
e 5 78
e 5 80
e 5 82
e 5 85
e 5 88
e 5 90
e 5 91
e 5 92
e 5 99
e 5 101
e 5 106
e 5 107
e 5 108
e 5 109
e 5 110
e 5 117
e 5 120
e 5 121
e 5 122
e 5 124
e 5 125
e 5 126
e 5 127
e 5 128
e 5 129
e 5 130
e 5 131
e 5 132
e 5 133
e 5 134
e 5 135
e 5 136
e 5 137
e 5 138
e 5 139
e 5 145
e 5 146
e 5 147
e 5 148
e 5 151
e 5 152
e 5 154
e 5 156
e 5 162
e 5 163
e 5 164
e 5 165
e 5 166
e 5 167
e 5 168
e 5 170
e 5 172
e 5 173
e 5 174
e 5 175
e 5 176
e 5 177
e 5 178
e 5 179
e 5 180
e 5 181
e 5 182
e 5 183
e 5 184
e 5 185
e 5 186
e 5 190
e 5 191
e 5 192
e 5 193
e 5 194
e 5 195
e 5 196
e 5 197
e 5 198
e 5 199
e 5 200
e 5 201
e 5 202
e 5 204
e 5 205
e 5 206
e 5 207
e 5 208
e 5 210
e 5 211
e 5 62
e 5 144
e 6 7
e 6 8
e 6 9
e 6 10
e 6 11
e 6 12
e 6 13
e 6 14
e 6 15
e 6 16
e 6 33
e 6 36
e 6 41
e 6 43
e 6 45
e 6 47
e 6 48
e 6 51
e 6 54
e 6 56
e 6 57
e 6 59
e 6 60
e 6 61
e 6 70
e 6 71
e 6 72
e 6 73
e 6 74
e 6 75
e 6 76
e 6 77
e 6 78
e 6 80
e 6 82
e 6 85
e 6 88
e 6 90
e 6 91
e 6 92
e 6 99
e 6 101
e 6 106
e 6 107
e 6 108
e 6 109
e 6 110
e 6 117
e 6 120
e 6 121
e 6 122
e 6 124
e 6 125
e 6 126
e 6 127
e 6 128
e 6 129
e 6 130
e 6 131
e 6 132
e 6 133
e 6 134
e 6 135
e 6 136
e 6 137
e 6 138
e 6 139
e 6 145
e 6 146
e 6 147
e 6 148
e 6 151
e 6 152
e 6 154
e 6 156
e 6 162
e 6 163
e 6 164
e 6 165
e 6 166
e 6 167
e 6 168
e 6 170
e 6 172
e 6 173
e 6 174
e 6 175
e 6 176
e 6 177
e 6 178
e 6 179
e 6 180
e 6 181
e 6 182
e 6 183
e 6 184
e 6 185
e 6 186
e 6 190
e 6 191
e 6 192
e 6 193
e 6 194
e 6 195
e 6 196
e 6 197
e 6 198
e 6 199
e 6 200
e 6 201
e 6 202
e 6 204
e 6 205
e 6 206
e 6 207
e 6 208
e 6 210
e 6 211
e 6 63
e 6 62
e 6 143
e 6 144
e 7 8
e 7 9
e 7 10
e 7 11
e 7 12
e 7 13
e 7 14
e 7 15
e 7 16
e 7 33
e 7 36
e 7 41
e 7 43
e 7 45
e 7 47
e 7 48
e 7 51
e 7 54
e 7 56
e 7 57
e 7 59
e 7 60
e 7 61
e 7 70
e 7 71
e 7 72
e 7 73
e 7 74
e 7 75
e 7 76
e 7 77
e 7 78
e 7 80
e 7 82
e 7 85
e 7 88
e 7 90
e 7 91
e 7 92
e 7 99
e 7 101
e 7 106
e 7 107
e 7 108
e 7 109
e 7 110
e 7 117
e 7 120
e 7 121
e 7 122
e 7 124
e 7 125
e 7 126
e 7 127
e 7 128
e 7 129
e 7 130
e 7 131
e 7 132
e 7 133
e 7 134
e 7 135
e 7 136
e 7 137
e 7 138
e 7 139
e 7 145
e 7 146
e 7 147
e 7 148
e 7 151
e 7 152
e 7 154
e 7 156
e 7 162
e 7 163
e 7 164
e 7 165
e 7 166
e 7 167
e 7 168
e 7 170
e 7 172
e 7 173
e 7 174
e 7 175
e 7 176
e 7 177
e 7 178
e 7 179
e 7 180
e 7 181
e 7 182
e 7 183
e 7 184
e 7 185
e 7 186
e 7 190
e 7 191
e 7 192
e 7 193
e 7 194
e 7 195
e 7 196
e 7 197
e 7 198
e 7 199
e 7 200
e 7 201
e 7 202
e 7 204
e 7 205
e 7 206
e 7 207
e 7 208
e 7 210
e 7 211
e 7 64
e 7 63
e 7 62
e 7 142
e 7 143
e 7 144
e 8 9
e 8 10
e 8 11
e 8 12
e 8 13
e 8 14
e 8 15
e 8 16
e 8 33
e 8 36
e 8 41
e 8 43
e 8 45
e 8 47
e 8 48
e 8 51
e 8 54
e 8 56
e 8 57
e 8 59
e 8 60
e 8 61
e 8 70
e 8 71
e 8 72
e 8 73
e 8 74
e 8 75
e 8 76
e 8 77
e 8 78
e 8 80
e 8 82
e 8 85
e 8 88
e 8 90
e 8 91
e 8 92
e 8 99
e 8 101
e 8 106
e 8 107
e 8 108
e 8 109
e 8 110
e 8 117
e 8 120
e 8 121
e 8 122
e 8 124
e 8 125
e 8 126
e 8 127
e 8 128
e 8 129
e 8 130
e 8 131
e 8 132
e 8 133
e 8 134
e 8 135
e 8 136
e 8 137
e 8 138
e 8 139
e 8 145
e 8 146
e 8 147
e 8 148
e 8 151
e 8 152
e 8 154
e 8 156
e 8 162
e 8 163
e 8 164
e 8 165
e 8 166
e 8 167
e 8 168
e 8 170
e 8 172
e 8 173
e 8 174
e 8 175
e 8 176
e 8 177
e 8 178
e 8 179
e 8 180
e 8 181
e 8 182
e 8 183
e 8 184
e 8 185
e 8 186
e 8 190
e 8 191
e 8 192
e 8 193
e 8 194
e 8 195
e 8 196
e 8 197
e 8 198
e 8 199
e 8 200
e 8 201
e 8 202
e 8 204
e 8 205
e 8 206
e 8 207
e 8 208
e 8 210
e 8 211
e 8 65
e 8 64
e 8 63
e 8 62
e 8 141
e 8 142
e 8 143
e 8 144
e 9 10
e 9 11
e 9 12
e 9 13
e 9 14
e 9 15
e 9 16
e 9 33
e 9 36
e 9 41
e 9 43
e 9 45
e 9 47
e 9 48
e 9 51
e 9 54
e 9 56
e 9 57
e 9 59
e 9 60
e 9 61
e 9 70
e 9 71
e 9 72
e 9 73
e 9 74
e 9 75
e 9 76
e 9 77
e 9 78
e 9 80
e 9 82
e 9 85
e 9 88
e 9 90
e 9 91
e 9 92
e 9 99
e 9 101
e 9 106
e 9 107
e 9 108
e 9 109
e 9 110
e 9 117
e 9 120
e 9 121
e 9 122
e 9 124
e 9 125
e 9 126
e 9 127
e 9 128
e 9 129
e 9 130
e 9 131
e 9 132
e 9 133
e 9 134
e 9 135
e 9 136
e 9 137
e 9 138
e 9 139
e 9 145
e 9 146
e 9 147
e 9 148
e 9 151
e 9 152
e 9 154
e 9 156
e 9 162
e 9 163
e 9 164
e 9 165
e 9 166
e 9 167
e 9 168
e 9 170
e 9 172
e 9 173
e 9 174
e 9 175
e 9 176
e 9 177
e 9 178
e 9 179
e 9 180
e 9 181
e 9 182
e 9 183
e 9 184
e 9 185
e 9 186
e 9 190
e 9 191
e 9 192
e 9 193
e 9 194
e 9 195
e 9 196
e 9 197
e 9 198
e 9 199
e 9 200
e 9 201
e 9 202
e 9 204
e 9 205
e 9 206
e 9 207
e 9 208
e 9 210
e 9 211
e 9 66
e 9 65
e 9 64
e 9 63
e 9 62
e 9 140
e 9 141
e 9 142
e 9 143
e 9 144
e 10 11
e 10 12
e 10 13
e 10 14
e 10 15
e 10 16
e 10 33
e 10 36
e 10 41
e 10 43
e 10 45
e 10 47
e 10 48
e 10 51
e 10 54
e 10 56
e 10 57
e 10 59
e 10 60
e 10 61
e 10 70
e 10 71
e 10 72
e 10 73
e 10 74
e 10 75
e 10 76
e 10 77
e 10 78
e 10 80
e 10 82
e 10 85
e 10 88
e 10 90
e 10 91
e 10 92
e 10 99
e 10 101
e 10 106
e 10 107
e 10 108
e 10 109
e 10 110
e 10 117
e 10 120
e 10 121
e 10 122
e 10 124
e 10 125
e 10 126
e 10 127
e 10 128
e 10 129
e 10 130
e 10 131
e 10 132
e 10 133
e 10 134
e 10 135
e 10 136
e 10 137
e 10 138
e 10 139
e 10 145
e 10 146
e 10 147
e 10 148
e 10 151
e 10 152
e 10 154
e 10 156
e 10 162
e 10 163
e 10 164
e 10 165
e 10 166
e 10 167
e 10 168
e 10 170
e 10 172
e 10 173
e 10 174
e 10 175
e 10 176
e 10 177
e 10 178
e 10 179
e 10 180
e 10 181
e 10 182
e 10 183
e 10 184
e 10 185
e 10 186
e 10 190
e 10 191
e 10 192
e 10 193
e 10 194
e 10 195
e 10 196
e 10 197
e 10 198
e 10 199
e 10 200
e 10 201
e 10 202
e 10 204
e 10 205
e 10 206
e 10 207
e 10 208
e 10 210
e 10 211
e 10 67
e 10 66
e 10 65
e 10 64
e 10 63
e 10 62
e 10 140
e 10 141
e 10 142
e 10 143
e 10 144
e 11 12
e 11 13
e 11 14
e 11 15
e 11 16
e 11 33
e 11 36
e 11 41
e 11 43
e 11 45
e 11 47
e 11 48
e 11 51
e 11 54
e 11 56
e 11 57
e 11 59
e 11 60
e 11 61
e 11 70
e 11 71
e 11 72
e 11 73
e 11 74
e 11 75
e 11 76
e 11 77
e 11 78
e 11 80
e 11 82
e 11 85
e 11 88
e 11 90
e 11 91
e 11 92
e 11 99
e 11 101
e 11 106
e 11 107
e 11 108
e 11 109
e 11 110
e 11 117
e 11 120
e 11 121
e 11 122
e 11 124
e 11 125
e 11 126
e 11 127
e 11 128
e 11 129
e 11 130
e 11 131
e 11 132
e 11 133
e 11 134
e 11 135
e 11 136
e 11 137
e 11 138
e 11 139
e 11 145
e 11 146
e 11 147
e 11 148
e 11 151
e 11 152
e 11 154
e 11 156
e 11 162
e 11 163
e 11 164
e 11 165
e 11 166
e 11 167
e 11 168
e 11 170
e 11 172
e 11 173
e 11 174
e 11 175
e 11 176
e 11 177
e 11 178
e 11 179
e 11 180
e 11 181
e 11 182
e 11 183
e 11 184
e 11 185
e 11 186
e 11 190
e 11 191
e 11 192
e 11 193
e 11 194
e 11 195
e 11 196
e 11 197
e 11 198
e 11 199
e 11 200
e 11 201
e 11 202
e 11 204
e 11 205
e 11 206
e 11 207
e 11 208
e 11 210
e 11 211
e 11 69
e 11 68
e 11 67
e 11 66
e 11 65
e 11 64
e 11 63
e 11 62
e 11 84
e 11 83
e 11 81
e 11 79
e 12 13
e 12 14
e 12 15
e 12 16
e 12 33
e 12 36
e 12 41
e 12 43
e 12 45
e 12 47
e 12 48
e 12 51
e 12 54
e 12 56
e 12 57
e 12 59
e 12 60
e 12 61
e 12 70
e 12 71
e 12 72
e 12 73
e 12 74
e 12 75
e 12 76
e 12 77
e 12 78
e 12 80
e 12 82
e 12 85
e 12 88
e 12 90
e 12 91
e 12 92
e 12 99
e 12 101
e 12 106
e 12 107
e 12 108
e 12 109
e 12 110
e 12 117
e 12 120
e 12 121
e 12 122
e 12 124
e 12 125
e 12 126
e 12 127
e 12 128
e 12 129
e 12 130
e 12 131
e 12 132
e 12 133
e 12 134
e 12 135
e 12 136
e 12 137
e 12 138
e 12 139
e 12 145
e 12 146
e 12 147
e 12 148
e 12 151
e 12 152
e 12 154
e 12 156
e 12 162
e 12 163
e 12 164
e 12 165
e 12 166
e 12 167
e 12 168
e 12 170
e 12 172
e 12 173
e 12 174
e 12 175
e 12 176
e 12 177
e 12 178
e 12 179
e 12 180
e 12 181
e 12 182
e 12 183
e 12 184
e 12 185
e 12 186
e 12 190
e 12 191
e 12 192
e 12 193
e 12 194
e 12 195
e 12 196
e 12 197
e 12 198
e 12 199
e 12 200
e 12 201
e 12 202
e 12 204
e 12 205
e 12 206
e 12 207
e 12 208
e 12 210
e 12 211
e 12 79
e 12 69
e 12 68
e 12 67
e 12 66
e 12 65
e 12 64
e 12 63
e 12 62
e 12 84
e 12 83
e 12 81
e 13 14
e 13 15
e 13 16
e 13 33
e 13 36
e 13 41
e 13 43
e 13 45
e 13 47
e 13 48
e 13 51
e 13 54
e 13 56
e 13 57
e 13 59
e 13 60
e 13 61
e 13 70
e 13 71
e 13 72
e 13 73
e 13 74
e 13 75
e 13 76
e 13 77
e 13 78
e 13 80
e 13 82
e 13 85
e 13 88
e 13 90
e 13 91
e 13 92
e 13 99
e 13 101
e 13 106
e 13 107
e 13 108
e 13 109
e 13 110
e 13 117
e 13 120
e 13 121
e 13 122
e 13 124
e 13 125
e 13 126
e 13 127
e 13 128
e 13 129
e 13 130
e 13 131
e 13 132
e 13 133
e 13 134
e 13 135
e 13 136
e 13 137
e 13 138
e 13 139
e 13 145
e 13 146
e 13 147
e 13 148
e 13 151
e 13 152
e 13 154
e 13 156
e 13 162
e 13 163
e 13 164
e 13 165
e 13 166
e 13 167
e 13 168
e 13 170
e 13 172
e 13 173
e 13 174
e 13 175
e 13 176
e 13 177
e 13 178
e 13 179
e 13 180
e 13 181
e 13 182
e 13 183
e 13 184
e 13 185
e 13 186
e 13 190
e 13 191
e 13 192
e 13 193
e 13 194
e 13 195
e 13 196
e 13 197
e 13 198
e 13 199
e 13 200
e 13 201
e 13 202
e 13 204
e 13 205
e 13 206
e 13 207
e 13 208
e 13 210
e 13 211
e 13 81
e 13 79
e 13 69
e 13 68
e 13 67
e 13 66
e 13 65
e 13 64
e 13 63
e 13 62
e 13 84
e 13 83
e 14 15
e 14 16
e 14 33
e 14 36
e 14 41
e 14 43
e 14 45
e 14 47
e 14 48
e 14 51
e 14 54
e 14 56
e 14 57
e 14 59
e 14 60
e 14 61
e 14 70
e 14 71
e 14 72
e 14 73
e 14 74
e 14 75
e 14 76
e 14 77
e 14 78
e 14 80
e 14 82
e 14 85
e 14 88
e 14 90
e 14 91
e 14 92
e 14 99
e 14 101
e 14 106
e 14 107
e 14 108
e 14 109
e 14 110
e 14 117
e 14 120
e 14 121
e 14 122
e 14 124
e 14 125
e 14 126
e 14 127
e 14 128
e 14 129
e 14 130
e 14 131
e 14 132
e 14 133
e 14 134
e 14 135
e 14 136
e 14 137
e 14 138
e 14 139
e 14 145
e 14 146
e 14 147
e 14 148
e 14 151
e 14 152
e 14 154
e 14 156
e 14 162
e 14 163
e 14 164
e 14 165
e 14 166
e 14 167
e 14 168
e 14 170
e 14 172
e 14 173
e 14 174
e 14 175
e 14 176
e 14 177
e 14 178
e 14 179
e 14 180
e 14 181
e 14 182
e 14 183
e 14 184
e 14 185
e 14 186
e 14 190
e 14 191
e 14 192
e 14 193
e 14 194
e 14 195
e 14 196
e 14 197
e 14 198
e 14 199
e 14 200
e 14 201
e 14 202
e 14 204
e 14 205
e 14 206
e 14 207
e 14 208
e 14 210
e 14 211
e 14 83
e 14 81
e 14 79
e 14 69
e 14 68
e 14 67
e 14 66
e 14 65
e 14 64
e 14 63
e 14 62
e 14 84
e 15 16
e 15 33
e 15 36
e 15 41
e 15 43
e 15 45
e 15 47
e 15 48
e 15 51
e 15 54
e 15 56
e 15 57
e 15 59
e 15 60
e 15 61
e 15 70
e 15 71
e 15 72
e 15 73
e 15 74
e 15 75
e 15 76
e 15 77
e 15 78
e 15 80
e 15 82
e 15 85
e 15 88
e 15 90
e 15 91
e 15 92
e 15 99
e 15 101
e 15 106
e 15 107
e 15 108
e 15 109
e 15 110
e 15 117
e 15 120
e 15 121
e 15 122
e 15 124
e 15 125
e 15 126
e 15 127
e 15 128
e 15 129
e 15 130
e 15 131
e 15 132
e 15 133
e 15 134
e 15 135
e 15 136
e 15 137
e 15 138
e 15 139
e 15 145
e 15 146
e 15 147
e 15 148
e 15 151
e 15 152
e 15 154
e 15 156
e 15 162
e 15 163
e 15 164
e 15 165
e 15 166
e 15 167
e 15 168
e 15 170
e 15 172
e 15 173
e 15 174
e 15 175
e 15 176
e 15 177
e 15 178
e 15 179
e 15 180
e 15 181
e 15 182
e 15 183
e 15 184
e 15 185
e 15 186
e 15 190
e 15 191
e 15 192
e 15 193
e 15 194
e 15 195
e 15 196
e 15 197
e 15 198
e 15 199
e 15 200
e 15 201
e 15 202
e 15 204
e 15 205
e 15 206
e 15 207
e 15 208
e 15 210
e 15 211
e 15 84
e 15 83
e 15 81
e 15 79
e 15 69
e 15 68
e 15 67
e 16 33
e 16 36
e 16 41
e 16 43
e 16 45
e 16 47
e 16 48
e 16 51
e 16 54
e 16 56
e 16 57
e 16 59
e 16 60
e 16 61
e 16 70
e 16 71
e 16 72
e 16 73
e 16 74
e 16 75
e 16 76
e 16 77
e 16 78
e 16 80
e 16 82
e 16 85
e 16 88
e 16 90
e 16 91
e 16 92
e 16 99
e 16 101
e 16 106
e 16 107
e 16 108
e 16 109
e 16 110
e 16 117
e 16 120
e 16 121
e 16 122
e 16 124
e 16 125
e 16 126
e 16 127
e 16 128
e 16 129
e 16 130
e 16 131
e 16 132
e 16 133
e 16 134
e 16 135
e 16 136
e 16 137
e 16 138
e 16 139
e 16 145
e 16 146
e 16 147
e 16 148
e 16 151
e 16 152
e 16 154
e 16 156
e 16 162
e 16 163
e 16 164
e 16 165
e 16 166
e 16 167
e 16 168
e 16 170
e 16 172
e 16 173
e 16 174
e 16 175
e 16 176
e 16 177
e 16 178
e 16 179
e 16 180
e 16 181
e 16 182
e 16 183
e 16 184
e 16 185
e 16 186
e 16 190
e 16 191
e 16 192
e 16 193
e 16 194
e 16 195
e 16 196
e 16 197
e 16 198
e 16 199
e 16 200
e 16 201
e 16 202
e 16 204
e 16 205
e 16 206
e 16 207
e 16 208
e 16 210
e 16 211
e 16 68
e 16 67
e 16 66
e 16 65
e 16 64
e 16 63
e 16 62
e 16 84
e 16 83
e 16 81
e 16 79
e 16 69
e 16 140
e 16 141
e 16 142
e 16 143
e 16 144
e 17 18
e 17 19
e 17 20
e 17 21
e 17 22
e 17 23
e 17 24
e 17 25
e 17 26
e 17 27
e 17 28
e 17 29
e 17 30
e 17 31
e 17 32
e 17 62
e 17 63
e 17 64
e 17 65
e 17 66
e 17 67
e 17 68
e 17 69
e 17 79
e 17 81
e 17 83
e 17 84
e 17 140
e 17 141
e 17 142
e 17 143
e 17 144
e 17 47
e 17 85
e 17 82
e 17 80
e 17 78
e 17 77
e 17 76
e 17 75
e 17 74
e 17 73
e 17 72
e 17 71
e 17 70
e 17 92
e 17 91
e 17 90
e 17 88
e 17 101
e 17 51
e 17 99
e 17 48
e 17 36
e 17 33
e 17 106
e 17 45
e 17 43
e 17 54
e 17 41
e 17 109
e 17 108
e 17 107
e 17 60
e 17 59
e 17 211
e 17 210
e 17 127
e 17 126
e 17 125
e 17 124
e 17 61
e 17 122
e 17 121
e 17 120
e 17 139
e 17 138
e 17 137
e 17 136
e 17 135
e 17 134
e 17 133
e 17 132
e 17 131
e 17 130
e 17 129
e 17 128
e 17 148
e 17 147
e 17 146
e 17 145
e 17 164
e 17 163
e 17 162
e 17 165
e 17 57
e 17 208
e 17 207
e 17 206
e 17 205
e 17 204
e 17 56
e 17 202
e 17 201
e 17 200
e 17 199
e 17 198
e 17 197
e 17 196
e 17 195
e 17 194
e 17 193
e 17 192
e 17 191
e 17 190
e 17 181
e 17 180
e 17 179
e 17 178
e 17 177
e 17 176
e 17 175
e 17 174
e 17 173
e 17 172
e 17 186
e 17 185
e 17 184
e 17 183
e 17 182
e 17 152
e 17 151
e 17 156
e 17 154
e 17 170
e 17 168
e 17 167
e 17 166
e 17 117
e 17 110
e 18 19
e 18 20
e 18 21
e 18 22
e 18 23
e 18 24
e 18 25
e 18 26
e 18 27
e 18 28
e 18 29
e 18 30
e 18 31
e 18 32
e 18 62
e 18 63
e 18 64
e 18 65
e 18 66
e 18 67
e 18 68
e 18 69
e 18 79
e 18 81
e 18 83
e 18 84
e 18 140
e 18 141
e 18 142
e 18 143
e 18 144
e 19 20
e 19 21
e 19 22
e 19 23
e 19 24
e 19 25
e 19 26
e 19 27
e 19 28
e 19 29
e 19 30
e 19 31
e 19 32
e 19 62
e 19 63
e 19 64
e 19 65
e 19 66
e 19 67
e 19 68
e 19 69
e 19 79
e 19 81
e 19 83
e 19 84
e 19 140
e 19 141
e 19 142
e 19 143
e 19 144
e 19 70
e 19 139
e 20 21
e 20 22
e 20 23
e 20 24
e 20 25
e 20 26
e 20 27
e 20 28
e 20 29
e 20 30
e 20 31
e 20 32
e 20 62
e 20 63
e 20 64
e 20 65
e 20 66
e 20 67
e 20 68
e 20 69
e 20 79
e 20 81
e 20 83
e 20 84
e 20 140
e 20 141
e 20 142
e 20 143
e 20 144
e 20 71
e 20 70
e 20 138
e 20 139
e 21 22
e 21 23
e 21 24
e 21 25
e 21 26
e 21 27
e 21 28
e 21 29
e 21 30
e 21 31
e 21 32
e 21 62
e 21 63
e 21 64
e 21 65
e 21 66
e 21 67
e 21 68
e 21 69
e 21 79
e 21 81
e 21 83
e 21 84
e 21 140
e 21 141
e 21 142
e 21 143
e 21 144
e 21 72
e 21 71
e 21 70
e 21 137
e 21 138
e 21 139
e 22 23
e 22 24
e 22 25
e 22 26
e 22 27
e 22 28
e 22 29
e 22 30
e 22 31
e 22 32
e 22 62
e 22 63
e 22 64
e 22 65
e 22 66
e 22 67
e 22 68
e 22 69
e 22 79
e 22 81
e 22 83
e 22 84
e 22 140
e 22 141
e 22 142
e 22 143
e 22 144
e 22 73
e 22 72
e 22 71
e 22 70
e 22 136
e 22 137
e 22 138
e 22 139
e 23 24
e 23 25
e 23 26
e 23 27
e 23 28
e 23 29
e 23 30
e 23 31
e 23 32
e 23 62
e 23 63
e 23 64
e 23 65
e 23 66
e 23 67
e 23 68
e 23 69
e 23 79
e 23 81
e 23 83
e 23 84
e 23 140
e 23 141
e 23 142
e 23 143
e 23 144
e 23 74
e 23 73
e 23 72
e 23 71
e 23 70
e 23 135
e 23 136
e 23 137
e 23 138
e 23 139
e 24 25
e 24 26
e 24 27
e 24 28
e 24 29
e 24 30
e 24 31
e 24 32
e 24 62
e 24 63
e 24 64
e 24 65
e 24 66
e 24 67
e 24 68
e 24 69
e 24 79
e 24 81
e 24 83
e 24 84
e 24 140
e 24 141
e 24 142
e 24 143
e 24 144
e 24 75
e 24 74
e 24 73
e 24 72
e 24 71
e 24 70
e 24 134
e 24 135
e 24 136
e 24 137
e 24 138
e 24 139
e 25 26
e 25 27
e 25 28
e 25 29
e 25 30
e 25 31
e 25 32
e 25 62
e 25 63
e 25 64
e 25 65
e 25 66
e 25 67
e 25 68
e 25 69
e 25 79
e 25 81
e 25 83
e 25 84
e 25 140
e 25 141
e 25 142
e 25 143
e 25 144
e 25 76
e 25 75
e 25 74
e 25 73
e 25 72
e 25 71
e 25 70
e 25 133
e 25 134
e 25 135
e 25 136
e 25 137
e 25 138
e 25 139
e 26 27
e 26 28
e 26 29
e 26 30
e 26 31
e 26 32
e 26 62
e 26 63
e 26 64
e 26 65
e 26 66
e 26 67
e 26 68
e 26 69
e 26 79
e 26 81
e 26 83
e 26 84
e 26 140
e 26 141
e 26 142
e 26 143
e 26 144
e 26 77
e 26 76
e 26 75
e 26 74
e 26 73
e 26 72
e 26 71
e 26 70
e 26 132
e 26 133
e 26 134
e 26 135
e 26 136
e 26 137
e 26 138
e 26 139
e 27 28
e 27 29
e 27 30
e 27 31
e 27 32
e 27 62
e 27 63
e 27 64
e 27 65
e 27 66
e 27 67
e 27 68
e 27 69
e 27 79
e 27 81
e 27 83
e 27 84
e 27 140
e 27 141
e 27 142
e 27 143
e 27 144
e 27 101
e 27 99
e 27 48
e 27 36
e 27 33
e 27 47
e 27 106
e 27 45
e 27 43
e 27 54
e 27 41
e 27 109
e 27 108
e 27 107
e 27 60
e 27 59
e 27 211
e 27 210
e 27 127
e 27 126
e 27 125
e 27 124
e 27 61
e 27 122
e 27 121
e 27 120
e 27 132
e 27 133
e 27 134
e 27 135
e 27 136
e 27 137
e 27 138
e 27 139
e 27 131
e 27 148
e 27 147
e 27 146
e 27 145
e 27 164
e 27 163
e 27 162
e 27 165
e 27 57
e 27 208
e 27 207
e 27 206
e 27 205
e 27 204
e 27 56
e 27 202
e 27 201
e 27 200
e 27 199
e 27 198
e 27 197
e 27 196
e 27 195
e 27 194
e 27 193
e 27 192
e 27 191
e 27 190
e 27 181
e 27 180
e 27 179
e 27 178
e 27 177
e 27 176
e 27 175
e 27 174
e 27 173
e 27 172
e 27 186
e 27 185
e 27 184
e 27 183
e 27 182
e 27 152
e 27 151
e 27 156
e 27 154
e 27 170
e 27 168
e 27 167
e 27 166
e 27 117
e 27 51
e 27 110
e 28 29
e 28 30
e 28 31
e 28 32
e 28 62
e 28 63
e 28 64
e 28 65
e 28 66
e 28 67
e 28 68
e 28 69
e 28 79
e 28 81
e 28 83
e 28 84
e 28 140
e 28 141
e 28 142
e 28 143
e 28 144
e 28 48
e 28 36
e 28 33
e 28 47
e 28 45
e 28 43
e 28 41
e 28 54
e 29 30
e 29 31
e 29 32
e 29 62
e 29 63
e 29 64
e 29 65
e 29 66
e 29 67
e 29 68
e 29 69
e 29 79
e 29 81
e 29 83
e 29 84
e 29 140
e 29 141
e 29 142
e 29 143
e 29 144
e 29 48
e 29 36
e 29 33
e 29 47
e 29 45
e 29 43
e 29 41
e 29 54
e 30 31
e 30 32
e 30 62
e 30 63
e 30 64
e 30 65
e 30 66
e 30 67
e 30 68
e 30 69
e 30 79
e 30 81
e 30 83
e 30 84
e 30 140
e 30 141
e 30 142
e 30 143
e 30 144
e 30 48
e 30 36
e 30 33
e 30 47
e 30 45
e 30 43
e 30 41
e 30 54
e 31 32
e 31 62
e 31 63
e 31 64
e 31 65
e 31 66
e 31 67
e 31 68
e 31 69
e 31 79
e 31 81
e 31 83
e 31 84
e 31 140
e 31 141
e 31 142
e 31 143
e 31 144
e 31 48
e 31 36
e 31 33
e 31 47
e 31 45
e 31 43
e 31 41
e 31 54
e 32 62
e 32 63
e 32 64
e 32 65
e 32 66
e 32 67
e 32 68
e 32 69
e 32 79
e 32 81
e 32 83
e 32 84
e 32 140
e 32 141
e 32 142
e 32 143
e 32 144
e 32 48
e 32 36
e 32 33
e 32 47
e 32 45
e 32 43
e 32 41
e 32 54
e 33 101
e 33 51
e 33 99
e 33 48
e 33 36
e 33 47
e 33 106
e 33 45
e 33 43
e 33 54
e 33 109
e 33 108
e 33 107
e 33 60
e 33 59
e 33 211
e 33 210
e 33 127
e 33 126
e 33 125
e 33 124
e 33 61
e 33 122
e 33 121
e 33 120
e 33 148
e 33 147
e 33 146
e 33 145
e 33 164
e 33 163
e 33 162
e 33 165
e 33 152
e 33 151
e 33 41
e 33 156
e 33 154
e 33 117
e 33 110
e 36 101
e 36 51
e 36 99
e 36 48
e 36 47
e 36 106
e 36 45
e 36 43
e 36 54
e 36 41
e 36 109
e 36 108
e 36 107
e 36 60
e 36 59
e 36 211
e 36 210
e 36 127
e 36 126
e 36 125
e 36 124
e 36 61
e 36 122
e 36 121
e 36 120
e 36 139
e 36 138
e 36 137
e 36 136
e 36 135
e 36 134
e 36 133
e 36 132
e 36 131
e 36 130
e 36 129
e 36 128
e 36 148
e 36 147
e 36 146
e 36 145
e 36 164
e 36 163
e 36 162
e 36 165
e 36 57
e 36 208
e 36 207
e 36 206
e 36 205
e 36 204
e 36 56
e 36 202
e 36 201
e 36 200
e 36 199
e 36 198
e 36 197
e 36 196
e 36 195
e 36 194
e 36 193
e 36 192
e 36 191
e 36 190
e 36 181
e 36 180
e 36 179
e 36 178
e 36 177
e 36 176
e 36 175
e 36 174
e 36 173
e 36 172
e 36 186
e 36 185
e 36 184
e 36 183
e 36 182
e 36 152
e 36 151
e 36 156
e 36 154
e 36 170
e 36 168
e 36 167
e 36 166
e 36 117
e 36 110
e 41 106
e 41 45
e 41 43
e 41 54
e 41 51
e 41 48
e 41 109
e 41 108
e 41 107
e 41 60
e 41 59
e 41 211
e 41 210
e 41 127
e 41 126
e 41 125
e 41 124
e 41 61
e 41 122
e 41 121
e 41 120
e 41 148
e 41 147
e 41 146
e 41 145
e 41 164
e 41 163
e 41 162
e 41 165
e 41 57
e 41 208
e 41 207
e 41 206
e 41 205
e 41 204
e 41 56
e 41 202
e 41 201
e 41 200
e 41 199
e 41 198
e 41 197
e 41 196
e 41 195
e 41 194
e 41 193
e 41 192
e 41 191
e 41 190
e 41 181
e 41 180
e 41 179
e 41 178
e 41 177
e 41 176
e 41 175
e 41 174
e 41 173
e 41 172
e 41 186
e 41 185
e 41 184
e 41 183
e 41 182
e 41 152
e 41 151
e 41 156
e 41 154
e 41 170
e 41 168
e 41 167
e 41 166
e 41 117
e 41 110
e 43 106
e 43 54
e 43 51
e 43 48
e 43 109
e 43 108
e 43 107
e 43 60
e 43 59
e 43 211
e 43 210
e 43 127
e 43 126
e 43 125
e 43 124
e 43 61
e 43 122
e 43 121
e 43 120
e 43 148
e 43 147
e 43 146
e 43 145
e 43 164
e 43 163
e 43 162
e 43 165
e 43 57
e 43 208
e 43 207
e 43 206
e 43 205
e 43 204
e 43 56
e 43 202
e 43 201
e 43 200
e 43 199
e 43 198
e 43 197
e 43 196
e 43 195
e 43 194
e 43 193
e 43 192
e 43 191
e 43 190
e 43 181
e 43 180
e 43 179
e 43 178
e 43 177
e 43 176
e 43 175
e 43 174
e 43 173
e 43 172
e 43 186
e 43 185
e 43 184
e 43 183
e 43 182
e 43 45
e 43 152
e 43 151
e 43 156
e 43 154
e 43 170
e 43 168
e 43 167
e 43 166
e 43 117
e 43 110
e 45 106
e 45 54
e 45 51
e 45 48
e 45 109
e 45 108
e 45 107
e 45 60
e 45 59
e 45 211
e 45 210
e 45 127
e 45 126
e 45 125
e 45 124
e 45 61
e 45 122
e 45 121
e 45 120
e 45 148
e 45 147
e 45 146
e 45 145
e 45 164
e 45 163
e 45 162
e 45 165
e 45 57
e 45 208
e 45 207
e 45 206
e 45 205
e 45 204
e 45 56
e 45 202
e 45 201
e 45 200
e 45 199
e 45 198
e 45 197
e 45 196
e 45 195
e 45 194
e 45 193
e 45 192
e 45 191
e 45 190
e 45 181
e 45 180
e 45 179
e 45 178
e 45 177
e 45 176
e 45 175
e 45 174
e 45 173
e 45 172
e 45 182
e 45 152
e 45 151
e 45 156
e 45 154
e 45 170
e 45 168
e 45 167
e 45 166
e 45 117
e 45 110
e 47 92
e 47 91
e 47 90
e 47 88
e 47 51
e 47 99
e 47 48
e 48 101
e 48 51
e 48 99
e 48 106
e 48 109
e 48 108
e 48 107
e 48 60
e 48 59
e 48 211
e 48 210
e 48 127
e 48 126
e 48 125
e 48 124
e 48 61
e 48 122
e 48 121
e 48 120
e 48 148
e 48 147
e 48 146
e 48 145
e 48 164
e 48 163
e 48 162
e 48 165
e 48 192
e 48 191
e 48 190
e 48 152
e 48 151
e 48 54
e 48 156
e 48 154
e 48 117
e 48 110
e 51 101
e 51 99
e 51 106
e 51 54
e 51 109
e 51 108
e 51 107
e 51 60
e 51 59
e 51 211
e 51 210
e 51 127
e 51 126
e 51 125
e 51 124
e 51 61
e 51 122
e 51 121
e 51 120
e 51 148
e 51 147
e 51 146
e 51 145
e 51 164
e 51 163
e 51 162
e 51 165
e 51 57
e 51 208
e 51 207
e 51 206
e 51 205
e 51 204
e 51 56
e 51 202
e 51 201
e 51 200
e 51 199
e 51 198
e 51 197
e 51 196
e 51 195
e 51 194
e 51 193
e 51 192
e 51 191
e 51 190
e 51 181
e 51 180
e 51 179
e 51 178
e 51 177
e 51 176
e 51 175
e 51 174
e 51 173
e 51 172
e 51 186
e 51 185
e 51 184
e 51 183
e 51 182
e 51 156
e 51 154
e 51 170
e 51 168
e 51 167
e 51 166
e 51 117
e 51 110
e 54 106
e 54 109
e 54 108
e 54 107
e 54 60
e 54 59
e 54 211
e 54 210
e 54 127
e 54 126
e 54 125
e 54 124
e 54 61
e 54 122
e 54 121
e 54 120
e 54 148
e 54 147
e 54 146
e 54 145
e 54 164
e 54 163
e 54 162
e 54 165
e 54 57
e 54 208
e 54 207
e 54 206
e 54 205
e 54 204
e 54 56
e 54 202
e 54 201
e 54 200
e 54 199
e 54 198
e 54 197
e 54 196
e 54 195
e 54 194
e 54 193
e 54 192
e 54 191
e 54 190
e 54 181
e 54 180
e 54 179
e 54 178
e 54 177
e 54 176
e 54 175
e 54 174
e 54 173
e 54 172
e 54 186
e 54 185
e 54 184
e 54 183
e 54 182
e 54 152
e 54 151
e 54 156
e 54 154
e 54 170
e 54 168
e 54 167
e 54 166
e 54 117
e 54 110
e 56 57
e 56 208
e 56 207
e 56 206
e 56 205
e 56 204
e 56 191
e 56 200
e 56 193
e 56 61
e 56 125
e 56 170
e 56 166
e 57 125
e 57 61
e 57 181
e 57 180
e 57 179
e 57 178
e 57 177
e 57 176
e 57 175
e 57 174
e 57 173
e 57 172
e 57 186
e 57 185
e 57 184
e 57 183
e 57 182
e 59 60
e 59 122
e 59 121
e 59 120
e 60 124
e 60 61
e 60 122
e 60 121
e 60 120
e 61 127
e 61 126
e 61 125
e 61 124
e 61 148
e 61 147
e 61 146
e 61 145
e 61 164
e 61 163
e 61 162
e 61 165
e 61 208
e 61 207
e 61 206
e 61 205
e 61 204
e 61 202
e 61 201
e 61 200
e 61 199
e 61 198
e 61 197
e 61 196
e 61 195
e 61 194
e 61 193
e 61 192
e 61 191
e 61 190
e 61 181
e 61 180
e 61 179
e 61 178
e 61 177
e 61 176
e 61 175
e 61 174
e 61 173
e 61 172
e 61 186
e 61 185
e 61 184
e 61 183
e 61 182
e 61 152
e 61 151
e 61 170
e 61 168
e 61 167
e 61 166
e 67 84
e 67 83
e 67 81
e 67 79
e 67 69
e 67 68
e 67 144
e 67 143
e 67 142
e 67 141
e 67 140
e 68 84
e 68 83
e 68 81
e 68 79
e 68 69
e 68 144
e 68 143
e 68 142
e 68 141
e 68 140
e 69 84
e 69 83
e 69 81
e 69 79
e 69 144
e 69 143
e 69 142
e 69 141
e 69 140
e 79 84
e 79 83
e 79 81
e 81 84
e 81 83
e 83 84
e 90 91
e 107 108
e 110 117
e 120 121
e 125 127
e 125 126
e 125 148
e 125 147
e 125 146
e 125 145
e 125 164
e 125 163
e 125 162
e 125 165
e 125 208
e 125 207
e 125 206
e 125 205
e 125 204
e 125 202
e 125 201
e 125 200
e 125 199
e 125 198
e 125 197
e 125 196
e 125 195
e 125 194
e 125 193
e 125 192
e 125 191
e 125 190
e 125 181
e 125 180
e 125 179
e 125 178
e 125 177
e 125 176
e 125 175
e 125 174
e 125 173
e 125 172
e 125 186
e 125 185
e 125 184
e 125 183
e 125 182
e 125 152
e 125 151
e 125 170
e 125 168
e 125 167
e 125 166
e 131 139
e 131 138
e 131 137
e 131 136
e 131 135
e 131 134
e 131 133
e 131 132
e 132 139
e 132 138
e 132 137
e 132 136
e 132 135
e 132 134
e 132 133
e 133 139
e 133 138
e 133 137
e 133 136
e 133 135
e 133 134
e 134 139
e 134 138
e 134 137
e 134 136
e 134 135
e 135 139
e 135 138
e 135 137
e 135 136
e 136 139
e 136 138
e 136 137
e 137 139
e 137 138
e 138 139
e 140 144
e 140 143
e 140 142
e 140 141
e 141 144
e 141 143
e 141 142
e 142 144
e 142 143
e 143 144
e 162 163
e 166 170
e 166 168
e 166 167
e 172 181
e 172 180
e 172 179
e 172 178
e 172 177
e 172 176
e 172 175
e 172 174
e 172 173
e 172 186
e 172 185
e 172 184
e 172 183
e 172 182
e 173 174
e 174 175
e 175 180
e 175 179
e 175 178
e 175 177
e 175 176
e 177 179
e 177 178
e 190 200
e 190 199
e 190 198
e 190 197
e 190 196
e 190 195
e 190 194
e 190 193
e 190 192
e 190 191
e 191 204
e 191 202
e 191 201
e 191 200
e 191 199
e 191 198
e 191 197
e 191 196
e 191 195
e 191 194
e 191 193
e 191 192
e 192 199
e 192 198
e 192 197
e 192 196
e 192 195
e 192 194
e 192 193
e 193 207
e 193 206
e 193 205
e 193 204
e 193 202
e 193 201
e 193 200
e 193 199
e 193 198
e 193 197
e 193 196
e 193 195
e 193 194
e 196 197
e 198 201
e 198 200
e 198 199
e 200 205
e 200 204
e 200 202
e 200 201
e 206 208
e 206 207
e 210 211
